
;this file is automatically generated: Tue May 21 14:12:00 IST 2019

;declarations generated

(declare-fun type_63091e39_7cfc_4c6f_a8ed_855dc4cfde0a_B ( Int) Bool )
(declare-fun oclExcludes ( Int Int) Bool )
(declare-fun oclSelect ( Int Bool) Int )
(declare-fun Cardinality ( Int) Int )
(declare-fun type_ad353b69_5e82_4391_9c0f_e8ffd214a0e0_C ( Int) Bool )
(declare-fun obj_6f0583a3_d039_4834_a674_1fae415640bb ( Int) Int )
(declare-fun type_1e97e841_6d1c_4d83_a475_2b79d5e91207_D ( Int) Bool )
(declare-fun type_7790c72e_83f9_43bf_afdc_b571568bb444_A ( Int) Bool )
(declare-fun container_ ( Int) Int )
(declare-fun oclIncludes ( Int Int) Bool )
(declare-fun aux1 () Int )
(declare-fun aux0 () Int )
(declare-fun aux3 () Int )
(declare-fun aux2 () Int )
(declare-fun aux4 () Int )
(declare-fun weight4 () Int )
(declare-fun weight3 () Int )
(declare-fun ObjAt ( Int Int) Int )
(declare-fun weight2 () Int )
(declare-fun weight1 () Int )
(declare-fun weight0 () Int )

;formula(s) generated
(assert (and (>= aux0 0) (<= aux0 1)))
(assert (or (or (forall ((b Int)) (=> (and ( type_63091e39_7cfc_4c6f_a8ed_855dc4cfde0a_B b )  ( type_7790c72e_83f9_43bf_afdc_b571568bb444_A b ) ) (forall ((c Int)) (=> (and ( type_ad353b69_5e82_4391_9c0f_e8ffd214a0e0_C c )  ( type_7790c72e_83f9_43bf_afdc_b571568bb444_A c ) ) (not (= ( obj_6f0583a3_d039_4834_a674_1fae415640bb b )  ( obj_6f0583a3_d039_4834_a674_1fae415640bb c ) ) ))))) (and (= aux0 1) true)) (and (= aux0 0) false)))
(assert (and (=> (= aux0 0) (= weight0 8)) (=> (= aux0 1) (= weight0 0))))
(assert (and (>= aux1 0) (<= aux1 1)))
(assert (and (>= aux2 0) (<= aux2 1)))
(assert (and (>= aux3 0) (<= aux3 1)))
(assert (and (>= aux4 0) (<= aux4 1)))
(assert (or (or (exists ((p Int)) ( type_7790c72e_83f9_43bf_afdc_b571568bb444_A ( obj_6f0583a3_d039_4834_a674_1fae415640bb p )  ) ) (and (= aux1 1) true)) (and (= aux1 0) false)))
(assert (and (=> (= aux1 0) (= weight1 2)) (=> (= aux1 1) (= weight1 0))))
(assert (or (or (exists ((p Int)) (and ( type_63091e39_7cfc_4c6f_a8ed_855dc4cfde0a_B ( obj_6f0583a3_d039_4834_a674_1fae415640bb p )  )  ( type_7790c72e_83f9_43bf_afdc_b571568bb444_A ( obj_6f0583a3_d039_4834_a674_1fae415640bb p )  ) )) (and (= aux2 1) true)) (and (= aux2 0) false)))
(assert (and (=> (= aux2 0) (= weight2 2)) (=> (= aux2 1) (= weight2 0))))
(assert (or (or (exists ((p Int)) (and ( type_ad353b69_5e82_4391_9c0f_e8ffd214a0e0_C ( obj_6f0583a3_d039_4834_a674_1fae415640bb p )  )  ( type_7790c72e_83f9_43bf_afdc_b571568bb444_A ( obj_6f0583a3_d039_4834_a674_1fae415640bb p )  ) )) (and (= aux3 1) true)) (and (= aux3 0) false)))
(assert (and (=> (= aux3 0) (= weight3 2)) (=> (= aux3 1) (= weight3 0))))
(assert (or (or (exists ((p Int)) (and (and (and ( type_1e97e841_6d1c_4d83_a475_2b79d5e91207_D ( obj_6f0583a3_d039_4834_a674_1fae415640bb p )  )  ( type_7790c72e_83f9_43bf_afdc_b571568bb444_A ( obj_6f0583a3_d039_4834_a674_1fae415640bb p )  ) ) ( type_63091e39_7cfc_4c6f_a8ed_855dc4cfde0a_B ( obj_6f0583a3_d039_4834_a674_1fae415640bb p )  ) ) ( type_ad353b69_5e82_4391_9c0f_e8ffd214a0e0_C ( obj_6f0583a3_d039_4834_a674_1fae415640bb p )  ) )) (and (= aux4 1) true)) (and (= aux4 0) false)))
(assert (and (=> (= aux4 0) (= weight4 2)) (=> (= aux4 1) (= weight4 0))))
(assert (= (+ (+ (+ (+ weight0 weight1) weight2) weight3) weight4) 14))
(assert (not (and (and (and (and (= weight0 8) (= weight1 2)) (= weight2 2)) (= weight3 2)) (= weight4 0)) ))
